solution status: optimal solution found
objective value:                                    0
$_25__1_y                                          -2 	(obj:0)
$_25__1_z                                         -22 	(obj:0)
one.pinholes[0].hole_out_a_y                      -20 	(obj:0)
one.pinholes[0].hole_out_a_z                       -1 	(obj:0)
$_21__1_y                                         -25 	(obj:0)
$_21__1_z                                           9 	(obj:0)
$_20__1_y                                         -25 	(obj:0)
$_20__1_z                                         -25 	(obj:0)
one.pinholes[0].hole_out_d_y                      -25 	(obj:0)
one.pinholes[0].hole_out_d_z                        5 	(obj:0)
one.pinholes[1].hole_out_d_y                        7 	(obj:0)
one.pinholes[1].hole_out_d_z                       25 	(obj:0)
$_24__1_y                                         -23 	(obj:0)
$_24__1_z                                         -23 	(obj:0)
one.ctrl_a[12].hole_y                             -24 	(obj:0)
one.ctrl_a[12].hole_z                              -1 	(obj:0)
$_22__1_y                                         -25 	(obj:0)
$_22__1_z                                          -4 	(obj:0)
one.pinholes[2].hole_out_a_y                      -24 	(obj:0)
one.pinholes[2].hole_out_a_z                       -8 	(obj:0)
one.pinholes[3].hole_out_d_y                      -24 	(obj:0)
one.pinholes[3].hole_out_d_z                       -6 	(obj:0)
$_19__1_y                                          25 	(obj:0)
$_19__1_z                                           6 	(obj:0)
one.pinholes[1].hole_out_a_y                       13 	(obj:0)
one.pinholes[1].hole_out_a_z                       25 	(obj:0)
$_23__1_y                                          25 	(obj:0)
$_23__1_z                                          25 	(obj:0)
one.ctrl_a[0].flush_y                             -24 	(obj:0)
one.ctrl_a[0].flush_z                              -5 	(obj:0)
$_18__1_y                                          -6 	(obj:0)
$_18__1_z                                          25 	(obj:0)
one.pinholes[3].hole_out_a_y                      -24 	(obj:0)
one.pinholes[2].hole_out_d_y                      -25 	(obj:0)
one.pinholes[2].hole_out_d_z                      -14 	(obj:0)
one.ctrl_a[12].flush_y                            -24 	(obj:0)
one.ctrl_a[12].flush_z                             -4 	(obj:0)
one.ctrl_a[0].hole_y                              -25 	(obj:0)
one.ctrl_a[0].hole_z                                1 	(obj:0)
